c defined variables: 33 34 35 36 37 38 39 40 41 42 43 44 45 46 47 48 49 50 51 52 53 54 55 56 57 58 59 60 61 62 63 64 65 66 67 68 69 70 71 72 73 74 75 76 77 78 79 80 81 82 83 84 85 86 87 88 89 90 91 92 93 94 95 96 97 98 99 100 101 102 103 104 105 106 107 108 109 110 111 112 113 114 115 116 117 118 119 120 121 122 123 124 125 126 127 128 129 130 131 132 133 134 135 136 137 138 139 140 141 142 143 144 145 146 147 148 149 150 151 152 153 154 155 156 157 158 159 160 161 162 163 164 165 166 167 180 181 182 183 184 185 186 187 188 189 190 191 192 193 194 195 196 197 198 199 200 201 202 203 204 205 206 207 208 209 210 211 212 213 214 215 216 217 218 219 220 221 222 223 224 225 226 227 228 229 230 231 232 233 234 235 236 237 238 239 240 241 242 243 244 245 246 247 248 249 250 251 252 253 254 255 256 257 258 259 260 261 262 263 264 265 266 267 268 269 270 272 273 274 275 276 277 278 279 280 281 282 283 284 285 286 287 288 289 290 291 292 293 294 295 296 297 298 
p cnf 1340 2033
a 1 2 3 4 5 6 7 8 9 10 11 12 13 14 15 16 17 18 19 20 21 22 23 24 25 26 27 28 29 30 31 32 170 171 172 173 174 175 176 177 0
e 33 34 35 36 37 38 39 40 41 42 43 44 45 46 47 48 49 50 51 52 53 54 55 56 57 58 59 60 61 62 63 64 65 66 67 68 69 70 71 72 73 74 75 76 77 78 79 80 81 82 83 84 85 86 87 88 89 90 91 92 93 94 95 96 97 98 99 100 101 102 103 104 105 106 107 108 109 110 111 112 113 114 115 116 117 118 119 120 121 122 123 124 125 126 127 128 129 130 131 132 133 134 135 136 137 138 139 140 141 142 143 144 145 146 147 148 149 150 151 152 153 154 155 156 157 158 159 160 161 162 163 164 165 166 167 180 181 182 183 184 185 186 187 188 189 190 191 192 193 194 195 196 197 198 199 200 201 202 203 204 205 206 207 208 209 210 211 212 213 214 215 216 217 218 219 220 221 222 223 224 225 226 227 228 229 230 231 232 233 234 235 236 237 238 239 240 241 242 243 244 245 246 247 248 249 250 251 252 253 254 255 256 257 258 259 260 261 262 263 264 265 266 267 268 269 270 272 273 274 275 276 277 278 279 280 281 282 283 284 285 286 287 288 289 290 291 292 293 294 295 296 297 298 1098 1099 1100 1101 1102 1103 1104 1105 1106 1107 1108 1109 1110 1111 1112 1113 1114 1115 1116 1117 1118 1119 1120 1121 1122 1123 1124 1125 1126 1127 1128 1129 1130 1131 1132 1133 1134 1135 1136 1137 1138 1139 1140 1141 1142 1143 1144 1145 1146 1147 1148 1149 1150 1151 1152 1153 1154 1155 1156 1157 1158 1159 1160 1161 1162 1163 1164 1165 1166 1167 1168 1169 1170 1171 1172 1173 1174 1175 1176 1177 1178 1179 1180 1181 1182 1183 1184 1185 1186 1187 1188 1189 1190 1191 1192 1193 1194 1195 1196 1197 1198 1199 1200 1201 1202 1203 1204 1205 1206 1207 1208 1209 1210 1211 1212 1213 1214 1215 1216 1217 1218 1219 1220 1221 1222 1223 1224 1225 1226 1227 1228 1229 1230 1231 1232 1233 1234 1235 1236 1237 1238 1239 1240 1241 1242 1243 1244 1245 1246 1247 1248 1249 1250 1251 1252 1253 1254 1255 1256 1257 1258 1259 1260 1261 1262 1263 1264 1265 1266 1267 1268 1269 1270 1271 1272 1273 1274 1275 1276 1277 1278 1279 1280 1281 1282 1283 1284 1285 1286 1287 1288 1289 1290 1291 1292 1293 1294 1295 1296 1297 1298 1299 1300 1301 1302 1303 1304 1305 1306 1307 1308 1309 1310 1311 1312 1313 1314 1315 1316 1317 1318 1319 1320 1321 1322 1323 1324 1325 1326 1327 1328 1329 1330 1331 1332 1333 1334 1335 1336 1337 1338 1339 1340 0
d 169 170 171 172 173 174 175 176 177 0
d 168 170 171 172 173 174 175 176 177 0
d 178 1 2 3 4 5 6 7 8 9 10 11 12 13 14 15 16 17 18 19 20 21 22 23 24 25 26 27 28 29 30 31 32 170 171 172 173 174 175 176 177 0
d 179 1 2 3 4 5 6 7 8 9 10 11 12 13 14 15 16 17 18 19 20 21 22 23 24 25 26 27 28 29 30 31 32 170 171 172 173 174 175 176 177 0
d 271 1 2 3 4 5 6 7 8 9 10 11 12 13 14 15 16 17 18 19 20 21 22 23 24 25 26 27 28 29 30 31 32 170 171 172 173 174 175 176 177 0
1098 -33 0
-1098 33 0
1099 -34 0
-1099 34 0
-1100 -35 0
1100 35 0
1101 -36 0
-1101 36 0
1102 -37 0
-1102 37 0
-1103 -38 0
1103 38 0
1104 -39 0
-1104 39 0
1105 -40 0
-1105 40 0
-1106 -41 0
1106 41 0
-12 -42 0
12 42 0
-1107 -43 0
1107 43 0
-11 -44 0
11 44 0
-1108 -45 0
1108 45 0
-10 -46 0
10 46 0
-1109 -47 0
1109 47 0
-9 -48 0
9 48 0
-1110 -49 0
1110 49 0
-49 -50 0
49 50 0
1111 -51 0
-1111 51 0
1113 -52 0
-1113 52 0
1115 -53 0
-1115 53 0
-1118 -54 0
1118 54 0
1119 -55 0
-1119 55 0
1120 -56 0
-1120 56 0
-1121 -57 0
1121 57 0
1122 -58 0
-1122 58 0
1123 -59 0
-1123 59 0
1124 -60 0
-1124 60 0
1125 -61 0
-1125 61 0
-1126 -62 0
1126 62 0
1127 -63 0
-1127 63 0
1128 -64 0
-1128 64 0
-1129 -65 0
1129 65 0
1130 -66 0
-1130 66 0
1131 -67 0
-1131 67 0
-1132 -68 0
1132 68 0
1133 -69 0
-1133 69 0
1134 -70 0
-1134 70 0
-1135 -71 0
1135 71 0
-8 -72 0
8 72 0
-1136 -73 0
1136 73 0
-7 -74 0
7 74 0
-1137 -75 0
1137 75 0
-6 -76 0
6 76 0
-1138 -77 0
1138 77 0
-5 -78 0
5 78 0
-1139 -79 0
1139 79 0
-79 -80 0
79 80 0
1140 -81 0
-1140 81 0
1142 -82 0
-1142 82 0
1144 -83 0
-1144 83 0
-1147 -84 0
1147 84 0
1148 -85 0
-1148 85 0
1149 -86 0
-1149 86 0
-1150 -87 0
1150 87 0
1151 -88 0
-1151 88 0
1152 -89 0
-1152 89 0
1153 -90 0
-1153 90 0
1154 -91 0
-1154 91 0
-1155 -92 0
1155 92 0
1156 -93 0
-1156 93 0
1157 -94 0
-1157 94 0
-1158 -95 0
1158 95 0
1159 -96 0
-1159 96 0
1160 -97 0
-1160 97 0
-1161 -98 0
1161 98 0
1162 -99 0
-1162 99 0
1163 -100 0
-1163 100 0
-1164 -101 0
1164 101 0
-4 -102 0
4 102 0
-1165 -103 0
1165 103 0
-3 -104 0
3 104 0
-1166 -105 0
1166 105 0
-2 -106 0
2 106 0
-1167 -107 0
1167 107 0
-1 -108 0
1 108 0
-1168 -109 0
1168 109 0
-109 -110 0
109 110 0
1169 -111 0
-1169 111 0
1171 -112 0
-1171 112 0
1173 -113 0
-1173 113 0
-1176 -114 0
1176 114 0
1177 -115 0
-1177 115 0
1178 -116 0
-1178 116 0
-1179 -117 0
1179 117 0
1180 -118 0
-1180 118 0
1181 -119 0
-1181 119 0
1182 -120 0
-1182 120 0
1183 -121 0
-1183 121 0
-1184 -122 0
1184 122 0
1185 -123 0
-1185 123 0
1186 -124 0
-1186 124 0
-1187 -125 0
1187 125 0
1188 -126 0
-1188 126 0
1189 -127 0
-1189 127 0
-1190 -128 0
1190 128 0
1191 -129 0
-1191 129 0
1192 -130 0
-1192 130 0
-1193 -131 0
1193 131 0
-16 -132 0
16 132 0
-1194 -133 0
1194 133 0
-15 -134 0
15 134 0
-1195 -135 0
1195 135 0
-14 -136 0
14 136 0
-1196 -137 0
1196 137 0
-13 -138 0
13 138 0
-1197 -139 0
1197 139 0
-139 -140 0
139 140 0
1198 -141 0
-1198 141 0
1200 -142 0
-1200 142 0
1202 -143 0
-1202 143 0
-1205 -144 0
1205 144 0
1206 -145 0
-1206 145 0
1207 -146 0
-1207 146 0
-1208 -147 0
1208 147 0
1209 -148 0
-1209 148 0
1210 -149 0
-1210 149 0
-144 -150 0
144 150 0
-1211 -151 0
1211 151 0
-54 -152 0
54 152 0
-1212 -153 0
1212 153 0
-84 -154 0
84 154 0
-1213 -155 0
1213 155 0
-114 -156 0
114 156 0
-1214 -157 0
1214 157 0
-157 -158 0
157 158 0
1215 -159 0
-1215 159 0
1217 -160 0
-1217 160 0
1219 -161 0
-1219 161 0
-1222 -162 0
1222 162 0
1223 -163 0
-1223 163 0
1224 -164 0
-1224 164 0
-1225 -165 0
1225 165 0
1226 -166 0
-1226 166 0
1227 -167 0
-1227 167 0
-1228 -180 0
1228 180 0
1127 -181 0
-1127 181 0
1128 -182 0
-1128 182 0
-1229 -183 0
1229 183 0
1130 -184 0
-1130 184 0
1131 -185 0
-1131 185 0
-1230 -186 0
1230 186 0
1133 -187 0
-1133 187 0
1134 -188 0
-1134 188 0
-1231 -189 0
1231 189 0
-8 -190 0
8 190 0
-1232 -191 0
1232 191 0
-7 -192 0
7 192 0
-1233 -193 0
1233 193 0
-6 -194 0
6 194 0
-1234 -195 0
1234 195 0
-5 -196 0
5 196 0
-196 -197 0
196 197 0
-1235 -198 0
1235 198 0
-198 -199 0
198 199 0
1236 -200 0
-1236 200 0
1238 -201 0
-1238 201 0
1240 -202 0
-1240 202 0
-1243 -203 0
1243 203 0
1148 -204 0
-1148 204 0
1149 -205 0
-1149 205 0
-1244 -206 0
1244 206 0
1245 -207 0
-1245 207 0
1246 -208 0
-1246 208 0
1247 -209 0
-1247 209 0
1248 -210 0
-1248 210 0
-1249 -211 0
1249 211 0
1156 -212 0
-1156 212 0
1157 -213 0
-1157 213 0
-1250 -214 0
1250 214 0
1159 -215 0
-1159 215 0
1160 -216 0
-1160 216 0
-1251 -217 0
1251 217 0
1162 -218 0
-1162 218 0
1163 -219 0
-1163 219 0
-1252 -220 0
1252 220 0
-4 -221 0
4 221 0
-1253 -222 0
1253 222 0
-3 -223 0
3 223 0
-1254 -224 0
1254 224 0
-2 -225 0
2 225 0
-1255 -226 0
1255 226 0
-1 -227 0
1 227 0
-1256 -228 0
1256 228 0
-228 -229 0
228 229 0
1257 -230 0
-1257 230 0
1259 -231 0
-1259 231 0
1261 -232 0
-1261 232 0
-1264 -233 0
1264 233 0
1177 -234 0
-1177 234 0
1178 -235 0
-1178 235 0
-1265 -236 0
1265 236 0
1266 -237 0
-1266 237 0
1267 -238 0
-1267 238 0
1268 -239 0
-1268 239 0
1269 -240 0
-1269 240 0
-1270 -241 0
1270 241 0
1185 -242 0
-1185 242 0
1186 -243 0
-1186 243 0
-1271 -244 0
1271 244 0
1188 -245 0
-1188 245 0
1189 -246 0
-1189 246 0
-1272 -247 0
1272 247 0
1191 -248 0
-1191 248 0
1192 -249 0
-1192 249 0
-1273 -250 0
1273 250 0
-16 -251 0
16 251 0
-1274 -252 0
1274 252 0
-15 -253 0
15 253 0
-1275 -254 0
1275 254 0
-14 -255 0
14 255 0
-1276 -256 0
1276 256 0
-13 -257 0
13 257 0
-1277 -258 0
1277 258 0
-258 -259 0
258 259 0
1278 -260 0
-1278 260 0
1280 -261 0
-1280 261 0
1282 -262 0
-1282 262 0
-1285 -263 0
1285 263 0
1206 -264 0
-1206 264 0
1207 -265 0
-1207 265 0
-1286 -266 0
1286 266 0
1287 -267 0
-1287 267 0
1288 -268 0
-1288 268 0
-263 -269 0
263 269 0
-1289 -270 0
1289 270 0
-1290 -272 0
1290 272 0
-203 -273 0
203 273 0
-1291 -274 0
1291 274 0
-233 -275 0
233 275 0
-1292 -276 0
1292 276 0
-276 -277 0
276 277 0
1293 -278 0
-1293 278 0
1295 -279 0
-1295 279 0
1297 -280 0
-1297 280 0
-1300 -281 0
1300 281 0
1301 -282 0
-1301 282 0
1302 -283 0
-1302 283 0
-1303 -284 0
1303 284 0
1304 -285 0
-1304 285 0
1305 -286 0
-1305 286 0
1308 -287 0
-1308 287 0
1311 -288 0
-1311 288 0
1314 -289 0
-1314 289 0
1316 -290 0
-1316 290 0
1319 -291 0
-1319 291 0
1322 -292 0
-1322 292 0
1325 -293 0
-1325 293 0
1328 -294 0
-1328 294 0
1331 -295 0
-1331 295 0
1334 -296 0
-1334 296 0
1337 -297 0
-1337 297 0
1340 -298 0
-1340 298 0
-33 -11 0
-33 27 0
11 -27 33 0
-34 11 0
-34 -27 0
-11 27 34 0
-33 35 0
-34 35 0
-35 33 34 0
-36 -10 0
-36 26 0
10 -26 36 0
-37 10 0
-37 -26 0
-10 26 37 0
-36 38 0
-37 38 0
-38 36 37 0
-39 -9 0
-39 25 0
9 -25 39 0
-40 9 0
-40 -25 0
-9 25 40 0
-39 41 0
-40 41 0
-41 39 40 0
-12 -42 0
12 42 0
-42 43 0
-28 43 0
-43 42 28 0
-11 -44 0
11 44 0
-44 45 0
-27 45 0
-45 44 27 0
-10 -46 0
10 46 0
-46 47 0
-26 47 0
-47 46 26 0
-9 -48 0
9 48 0
-48 49 0
-25 49 0
-49 48 25 0
-49 -50 0
49 50 0
-51 -41 0
-51 -47 0
41 47 51 0
-52 -38 0
-52 -41 0
-52 -45 0
38 41 45 52 0
-53 -35 0
-53 -38 0
-53 -41 0
-53 -43 0
35 38 41 43 53 0
-50 54 0
-51 54 0
-52 54 0
-53 54 0
-54 50 51 52 53 0
-55 -12 0
-55 28 0
12 -28 55 0
-56 12 0
-56 -28 0
-12 28 56 0
-55 57 0
-56 57 0
-57 55 56 0
-58 -57 0
-58 -35 0
-58 -38 0
-58 -41 0
57 35 38 41 58 0
-59 -54 0
-59 -58 0
54 58 59 0
-60 -54 0
-60 59 0
54 -59 60 0
-61 54 0
-61 -59 0
-54 59 61 0
-60 62 0
-61 62 0
-62 60 61 0
-63 -7 0
-63 23 0
7 -23 63 0
-64 7 0
-64 -23 0
-7 23 64 0
-63 65 0
-64 65 0
-65 63 64 0
-66 -6 0
-66 22 0
6 -22 66 0
-67 6 0
-67 -22 0
-6 22 67 0
-66 68 0
-67 68 0
-68 66 67 0
-69 -5 0
-69 21 0
5 -21 69 0
-70 5 0
-70 -21 0
-5 21 70 0
-69 71 0
-70 71 0
-71 69 70 0
-8 -72 0
8 72 0
-72 73 0
-24 73 0
-73 72 24 0
-7 -74 0
7 74 0
-74 75 0
-23 75 0
-75 74 23 0
-6 -76 0
6 76 0
-76 77 0
-22 77 0
-77 76 22 0
-5 -78 0
5 78 0
-78 79 0
-21 79 0
-79 78 21 0
-79 -80 0
79 80 0
-81 -71 0
-81 -77 0
71 77 81 0
-82 -68 0
-82 -71 0
-82 -75 0
68 71 75 82 0
-83 -65 0
-83 -68 0
-83 -71 0
-83 -73 0
65 68 71 73 83 0
-80 84 0
-81 84 0
-82 84 0
-83 84 0
-84 80 81 82 83 0
-85 -8 0
-85 24 0
8 -24 85 0
-86 8 0
-86 -24 0
-8 24 86 0
-85 87 0
-86 87 0
-87 85 86 0
-88 -87 0
-88 -65 0
-88 -68 0
-88 -71 0
87 65 68 71 88 0
-89 -84 0
-89 -88 0
84 88 89 0
-90 -84 0
-90 89 0
84 -89 90 0
-91 84 0
-91 -89 0
-84 89 91 0
-90 92 0
-91 92 0
-92 90 91 0
-93 -3 0
-93 19 0
3 -19 93 0
-94 3 0
-94 -19 0
-3 19 94 0
-93 95 0
-94 95 0
-95 93 94 0
-96 -2 0
-96 18 0
2 -18 96 0
-97 2 0
-97 -18 0
-2 18 97 0
-96 98 0
-97 98 0
-98 96 97 0
-99 -1 0
-99 17 0
1 -17 99 0
-100 1 0
-100 -17 0
-1 17 100 0
-99 101 0
-100 101 0
-101 99 100 0
-4 -102 0
4 102 0
-102 103 0
-20 103 0
-103 102 20 0
-3 -104 0
3 104 0
-104 105 0
-19 105 0
-105 104 19 0
-2 -106 0
2 106 0
-106 107 0
-18 107 0
-107 106 18 0
-1 -108 0
1 108 0
-108 109 0
-17 109 0
-109 108 17 0
-109 -110 0
109 110 0
-111 -101 0
-111 -107 0
101 107 111 0
-112 -98 0
-112 -101 0
-112 -105 0
98 101 105 112 0
-113 -95 0
-113 -98 0
-113 -101 0
-113 -103 0
95 98 101 103 113 0
-110 114 0
-111 114 0
-112 114 0
-113 114 0
-114 110 111 112 113 0
-115 -4 0
-115 20 0
4 -20 115 0
-116 4 0
-116 -20 0
-4 20 116 0
-115 117 0
-116 117 0
-117 115 116 0
-118 -117 0
-118 -95 0
-118 -98 0
-118 -101 0
117 95 98 101 118 0
-119 -114 0
-119 -118 0
114 118 119 0
-120 -114 0
-120 119 0
114 -119 120 0
-121 114 0
-121 -119 0
-114 119 121 0
-120 122 0
-121 122 0
-122 120 121 0
-123 -15 0
-123 31 0
15 -31 123 0
-124 15 0
-124 -31 0
-15 31 124 0
-123 125 0
-124 125 0
-125 123 124 0
-126 -14 0
-126 30 0
14 -30 126 0
-127 14 0
-127 -30 0
-14 30 127 0
-126 128 0
-127 128 0
-128 126 127 0
-129 -13 0
-129 29 0
13 -29 129 0
-130 13 0
-130 -29 0
-13 29 130 0
-129 131 0
-130 131 0
-131 129 130 0
-16 -132 0
16 132 0
-132 133 0
-32 133 0
-133 132 32 0
-15 -134 0
15 134 0
-134 135 0
-31 135 0
-135 134 31 0
-14 -136 0
14 136 0
-136 137 0
-30 137 0
-137 136 30 0
-13 -138 0
13 138 0
-138 139 0
-29 139 0
-139 138 29 0
-139 -140 0
139 140 0
-141 -131 0
-141 -137 0
131 137 141 0
-142 -128 0
-142 -131 0
-142 -135 0
128 131 135 142 0
-143 -125 0
-143 -128 0
-143 -131 0
-143 -133 0
125 128 131 133 143 0
-140 144 0
-141 144 0
-142 144 0
-143 144 0
-144 140 141 142 143 0
-145 -16 0
-145 32 0
16 -32 145 0
-146 16 0
-146 -32 0
-16 32 146 0
-145 147 0
-146 147 0
-147 145 146 0
-148 -147 0
-148 -125 0
-148 -128 0
-148 -131 0
147 125 128 131 148 0
-149 -144 0
-149 -148 0
144 148 149 0
-144 -150 0
144 150 0
-150 151 0
-149 151 0
-151 150 149 0
-54 -152 0
54 152 0
-152 153 0
-59 153 0
-153 152 59 0
-84 -154 0
84 154 0
-154 155 0
-89 155 0
-155 154 89 0
-114 -156 0
114 156 0
-156 157 0
-119 157 0
-157 156 119 0
-157 -158 0
157 158 0
-159 -122 0
-159 -155 0
122 155 159 0
-160 -92 0
-160 -122 0
-160 -153 0
92 122 153 160 0
-161 -62 0
-161 -92 0
-161 -122 0
-161 -151 0
62 92 122 151 161 0
-158 162 0
-159 162 0
-160 162 0
-161 162 0
-162 158 159 160 161 0
-163 -144 0
-163 149 0
144 -149 163 0
-164 144 0
-164 -149 0
-144 149 164 0
-163 165 0
-164 165 0
-165 163 164 0
-166 -165 0
-166 -62 0
-166 -92 0
-166 -122 0
165 62 92 122 166 0
-167 -162 0
-167 -166 0
162 166 167 0
-178 -169 0
-178 168 0
169 -168 178 0
-179 169 0
-179 -168 0
-169 168 179 0
-178 180 0
-179 180 0
-180 178 179 0
-181 -7 0
-181 23 0
7 -23 181 0
-182 7 0
-182 -23 0
-7 23 182 0
-181 183 0
-182 183 0
-183 181 182 0
-184 -6 0
-184 22 0
6 -22 184 0
-185 6 0
-185 -22 0
-6 22 185 0
-184 186 0
-185 186 0
-186 184 185 0
-187 -5 0
-187 21 0
5 -21 187 0
-188 5 0
-188 -21 0
-5 21 188 0
-187 189 0
-188 189 0
-189 187 188 0
-8 -190 0
8 190 0
-190 191 0
-24 191 0
-191 190 24 0
-7 -192 0
7 192 0
-192 193 0
-23 193 0
-193 192 23 0
-6 -194 0
6 194 0
-194 195 0
-22 195 0
-195 194 22 0
-5 -196 0
5 196 0
-196 -197 0
196 197 0
-197 198 0
-21 198 0
-198 197 21 0
-198 -199 0
198 199 0
-200 -189 0
-200 -195 0
189 195 200 0
-201 -186 0
-201 -189 0
-201 -193 0
186 189 193 201 0
-202 -183 0
-202 -186 0
-202 -189 0
-202 -191 0
183 186 189 191 202 0
-199 203 0
-200 203 0
-201 203 0
-202 203 0
-203 199 200 201 202 0
-204 -8 0
-204 24 0
8 -24 204 0
-205 8 0
-205 -24 0
-8 24 205 0
-204 206 0
-205 206 0
-206 204 205 0
-207 -206 0
-207 -183 0
-207 -186 0
-207 -189 0
206 183 186 189 207 0
-208 -203 0
-208 -207 0
203 207 208 0
-209 -203 0
-209 208 0
203 -208 209 0
-210 203 0
-210 -208 0
-203 208 210 0
-209 211 0
-210 211 0
-211 209 210 0
-212 -3 0
-212 19 0
3 -19 212 0
-213 3 0
-213 -19 0
-3 19 213 0
-212 214 0
-213 214 0
-214 212 213 0
-215 -2 0
-215 18 0
2 -18 215 0
-216 2 0
-216 -18 0
-2 18 216 0
-215 217 0
-216 217 0
-217 215 216 0
-218 -1 0
-218 17 0
1 -17 218 0
-219 1 0
-219 -17 0
-1 17 219 0
-218 220 0
-219 220 0
-220 218 219 0
-4 -221 0
4 221 0
-221 222 0
-20 222 0
-222 221 20 0
-3 -223 0
3 223 0
-223 224 0
-19 224 0
-224 223 19 0
-2 -225 0
2 225 0
-225 226 0
-18 226 0
-226 225 18 0
-1 -227 0
1 227 0
-227 228 0
-17 228 0
-228 227 17 0
-228 -229 0
228 229 0
-230 -220 0
-230 -226 0
220 226 230 0
-231 -217 0
-231 -220 0
-231 -224 0
217 220 224 231 0
-232 -214 0
-232 -217 0
-232 -220 0
-232 -222 0
214 217 220 222 232 0
-229 233 0
-230 233 0
-231 233 0
-232 233 0
-233 229 230 231 232 0
-234 -4 0
-234 20 0
4 -20 234 0
-235 4 0
-235 -20 0
-4 20 235 0
-234 236 0
-235 236 0
-236 234 235 0
-237 -236 0
-237 -214 0
-237 -217 0
-237 -220 0
236 214 217 220 237 0
-238 -233 0
-238 -237 0
233 237 238 0
-239 -233 0
-239 238 0
233 -238 239 0
-240 233 0
-240 -238 0
-233 238 240 0
-239 241 0
-240 241 0
-241 239 240 0
-242 -15 0
-242 31 0
15 -31 242 0
-243 15 0
-243 -31 0
-15 31 243 0
-242 244 0
-243 244 0
-244 242 243 0
-245 -14 0
-245 30 0
14 -30 245 0
-246 14 0
-246 -30 0
-14 30 246 0
-245 247 0
-246 247 0
-247 245 246 0
-248 -13 0
-248 29 0
13 -29 248 0
-249 13 0
-249 -29 0
-13 29 249 0
-248 250 0
-249 250 0
-250 248 249 0
-16 -251 0
16 251 0
-251 252 0
-32 252 0
-252 251 32 0
-15 -253 0
15 253 0
-253 254 0
-31 254 0
-254 253 31 0
-14 -255 0
14 255 0
-255 256 0
-30 256 0
-256 255 30 0
-13 -257 0
13 257 0
-257 258 0
-29 258 0
-258 257 29 0
-258 -259 0
258 259 0
-260 -250 0
-260 -256 0
250 256 260 0
-261 -247 0
-261 -250 0
-261 -254 0
247 250 254 261 0
-262 -244 0
-262 -247 0
-262 -250 0
-262 -252 0
244 247 250 252 262 0
-259 263 0
-260 263 0
-261 263 0
-262 263 0
-263 259 260 261 262 0
-264 -16 0
-264 32 0
16 -32 264 0
-265 16 0
-265 -32 0
-16 32 265 0
-264 266 0
-265 266 0
-266 264 265 0
-267 -266 0
-267 -244 0
-267 -247 0
-267 -250 0
266 244 247 250 267 0
-268 -263 0
-268 -267 0
263 267 268 0
-263 -269 0
263 269 0
-269 270 0
-268 270 0
-270 269 268 0
-169 -271 0
169 271 0
-271 272 0
-168 272 0
-272 271 168 0
-203 -273 0
203 273 0
-273 274 0
-208 274 0
-274 273 208 0
-233 -275 0
233 275 0
-275 276 0
-238 276 0
-276 275 238 0
-276 -277 0
276 277 0
-278 -241 0
-278 -274 0
241 274 278 0
-279 -211 0
-279 -241 0
-279 -272 0
211 241 272 279 0
-280 -180 0
-280 -211 0
-280 -241 0
-280 -270 0
180 211 241 270 280 0
-277 281 0
-278 281 0
-279 281 0
-280 281 0
-281 277 278 279 280 0
-282 -263 0
-282 268 0
263 -268 282 0
-283 263 0
-283 -268 0
-263 268 283 0
-282 284 0
-283 284 0
-284 282 283 0
-285 -284 0
-285 -180 0
-285 -211 0
-285 -241 0
284 180 211 241 285 0
-286 -281 0
-286 -285 0
281 285 286 0
-287 -167 286 0
-287 167 -286 0
287 -167 -286 0
287 167 286 0
-288 -166 285 0
-288 166 -285 0
288 -166 -285 0
288 166 285 0
-289 -162 281 0
-289 162 -281 0
289 -162 -281 0
289 162 281 0
-287 -288 -289 290 0
-290 287 0
-290 288 0
-290 289 0
-11 -170 -291 0
-11 170 291 0
11 -170 291 0
11 170 -291 0
-27 -171 -292 0
-27 171 292 0
27 -171 292 0
27 171 -292 0
-10 -172 -293 0
-10 172 293 0
10 -172 293 0
10 172 -293 0
-26 -173 -294 0
-26 173 294 0
26 -173 294 0
26 173 -294 0
-9 -174 -295 0
-9 174 295 0
9 -174 295 0
9 174 -295 0
-25 -175 -296 0
-25 175 296 0
25 -175 296 0
25 175 -296 0
-12 -176 -297 0
-12 176 297 0
12 -176 297 0
12 176 -297 0
-28 -177 -298 0
-28 177 298 0
28 -177 298 0
28 177 -298 0
291 292 293 294 295 296 297 298 290 0
-11 -1098 0
27 -1098 0
11 -27 1098 0
11 -1099 0
-27 -1099 0
-11 27 1099 0
-33 -1100 0
-34 -1100 0
33 34 1100 0
-10 -1101 0
26 -1101 0
10 -26 1101 0
10 -1102 0
-26 -1102 0
-10 26 1102 0
-36 -1103 0
-37 -1103 0
36 37 1103 0
-9 -1104 0
25 -1104 0
9 -25 1104 0
9 -1105 0
-25 -1105 0
-9 25 1105 0
-39 -1106 0
-40 -1106 0
39 40 1106 0
-28 -1107 0
-42 -1107 0
28 42 1107 0
-27 -1108 0
-44 -1108 0
27 44 1108 0
-26 -1109 0
-46 -1109 0
26 46 1109 0
-25 -1110 0
-48 -1110 0
25 48 1110 0
-41 -1111 0
-47 -1111 0
41 47 1111 0
-38 -1112 0
-41 -1112 0
38 41 1112 0
-45 -1113 0
1112 -1113 0
45 -1112 1113 0
-35 -1114 0
1112 -1114 0
35 -1112 1114 0
-43 -1115 0
1114 -1115 0
43 -1114 1115 0
-50 -1116 0
-51 -1116 0
50 51 1116 0
-52 -1117 0
-53 -1117 0
52 53 1117 0
1116 -1118 0
1117 -1118 0
-1116 -1117 1118 0
-12 -1119 0
28 -1119 0
12 -28 1119 0
12 -1120 0
-28 -1120 0
-12 28 1120 0
-55 -1121 0
-56 -1121 0
55 56 1121 0
-57 -1122 0
1114 -1122 0
57 -1114 1122 0
-54 -1123 0
-58 -1123 0
54 58 1123 0
-54 -1124 0
59 -1124 0
54 -59 1124 0
54 -1125 0
-59 -1125 0
-54 59 1125 0
-60 -1126 0
-61 -1126 0
60 61 1126 0
-7 -1127 0
23 -1127 0
7 -23 1127 0
7 -1128 0
-23 -1128 0
-7 23 1128 0
-63 -1129 0
-64 -1129 0
63 64 1129 0
-6 -1130 0
22 -1130 0
6 -22 1130 0
6 -1131 0
-22 -1131 0
-6 22 1131 0
-66 -1132 0
-67 -1132 0
66 67 1132 0
-5 -1133 0
21 -1133 0
5 -21 1133 0
5 -1134 0
-21 -1134 0
-5 21 1134 0
-69 -1135 0
-70 -1135 0
69 70 1135 0
-24 -1136 0
-72 -1136 0
24 72 1136 0
-23 -1137 0
-74 -1137 0
23 74 1137 0
-22 -1138 0
-76 -1138 0
22 76 1138 0
-21 -1139 0
-78 -1139 0
21 78 1139 0
-71 -1140 0
-77 -1140 0
71 77 1140 0
-68 -1141 0
-71 -1141 0
68 71 1141 0
-75 -1142 0
1141 -1142 0
75 -1141 1142 0
-65 -1143 0
1141 -1143 0
65 -1141 1143 0
-73 -1144 0
1143 -1144 0
73 -1143 1144 0
-80 -1145 0
-81 -1145 0
80 81 1145 0
-82 -1146 0
-83 -1146 0
82 83 1146 0
1145 -1147 0
1146 -1147 0
-1145 -1146 1147 0
-8 -1148 0
24 -1148 0
8 -24 1148 0
8 -1149 0
-24 -1149 0
-8 24 1149 0
-85 -1150 0
-86 -1150 0
85 86 1150 0
-87 -1151 0
1143 -1151 0
87 -1143 1151 0
-84 -1152 0
-88 -1152 0
84 88 1152 0
-84 -1153 0
89 -1153 0
84 -89 1153 0
84 -1154 0
-89 -1154 0
-84 89 1154 0
-90 -1155 0
-91 -1155 0
90 91 1155 0
-3 -1156 0
19 -1156 0
3 -19 1156 0
3 -1157 0
-19 -1157 0
-3 19 1157 0
-93 -1158 0
-94 -1158 0
93 94 1158 0
-2 -1159 0
18 -1159 0
2 -18 1159 0
2 -1160 0
-18 -1160 0
-2 18 1160 0
-96 -1161 0
-97 -1161 0
96 97 1161 0
-1 -1162 0
17 -1162 0
1 -17 1162 0
1 -1163 0
-17 -1163 0
-1 17 1163 0
-99 -1164 0
-100 -1164 0
99 100 1164 0
-20 -1165 0
-102 -1165 0
20 102 1165 0
-19 -1166 0
-104 -1166 0
19 104 1166 0
-18 -1167 0
-106 -1167 0
18 106 1167 0
-17 -1168 0
-108 -1168 0
17 108 1168 0
-101 -1169 0
-107 -1169 0
101 107 1169 0
-98 -1170 0
-101 -1170 0
98 101 1170 0
-105 -1171 0
1170 -1171 0
105 -1170 1171 0
-95 -1172 0
1170 -1172 0
95 -1170 1172 0
-103 -1173 0
1172 -1173 0
103 -1172 1173 0
-110 -1174 0
-111 -1174 0
110 111 1174 0
-112 -1175 0
-113 -1175 0
112 113 1175 0
1174 -1176 0
1175 -1176 0
-1174 -1175 1176 0
-4 -1177 0
20 -1177 0
4 -20 1177 0
4 -1178 0
-20 -1178 0
-4 20 1178 0
-115 -1179 0
-116 -1179 0
115 116 1179 0
-117 -1180 0
1172 -1180 0
117 -1172 1180 0
-114 -1181 0
-118 -1181 0
114 118 1181 0
-114 -1182 0
119 -1182 0
114 -119 1182 0
114 -1183 0
-119 -1183 0
-114 119 1183 0
-120 -1184 0
-121 -1184 0
120 121 1184 0
-15 -1185 0
31 -1185 0
15 -31 1185 0
15 -1186 0
-31 -1186 0
-15 31 1186 0
-123 -1187 0
-124 -1187 0
123 124 1187 0
-14 -1188 0
30 -1188 0
14 -30 1188 0
14 -1189 0
-30 -1189 0
-14 30 1189 0
-126 -1190 0
-127 -1190 0
126 127 1190 0
-13 -1191 0
29 -1191 0
13 -29 1191 0
13 -1192 0
-29 -1192 0
-13 29 1192 0
-129 -1193 0
-130 -1193 0
129 130 1193 0
-32 -1194 0
-132 -1194 0
32 132 1194 0
-31 -1195 0
-134 -1195 0
31 134 1195 0
-30 -1196 0
-136 -1196 0
30 136 1196 0
-29 -1197 0
-138 -1197 0
29 138 1197 0
-131 -1198 0
-137 -1198 0
131 137 1198 0
-128 -1199 0
-131 -1199 0
128 131 1199 0
-135 -1200 0
1199 -1200 0
135 -1199 1200 0
-125 -1201 0
1199 -1201 0
125 -1199 1201 0
-133 -1202 0
1201 -1202 0
133 -1201 1202 0
-140 -1203 0
-141 -1203 0
140 141 1203 0
-142 -1204 0
-143 -1204 0
142 143 1204 0
1203 -1205 0
1204 -1205 0
-1203 -1204 1205 0
-16 -1206 0
32 -1206 0
16 -32 1206 0
16 -1207 0
-32 -1207 0
-16 32 1207 0
-145 -1208 0
-146 -1208 0
145 146 1208 0
-147 -1209 0
1201 -1209 0
147 -1201 1209 0
-144 -1210 0
-148 -1210 0
144 148 1210 0
-149 -1211 0
-150 -1211 0
149 150 1211 0
-59 -1212 0
-152 -1212 0
59 152 1212 0
-89 -1213 0
-154 -1213 0
89 154 1213 0
-119 -1214 0
-156 -1214 0
119 156 1214 0
-122 -1215 0
-155 -1215 0
122 155 1215 0
-92 -1216 0
-122 -1216 0
92 122 1216 0
-153 -1217 0
1216 -1217 0
153 -1216 1217 0
-62 -1218 0
1216 -1218 0
62 -1216 1218 0
-151 -1219 0
1218 -1219 0
151 -1218 1219 0
-158 -1220 0
-159 -1220 0
158 159 1220 0
-160 -1221 0
-161 -1221 0
160 161 1221 0
1220 -1222 0
1221 -1222 0
-1220 -1221 1222 0
-144 -1223 0
149 -1223 0
144 -149 1223 0
144 -1224 0
-149 -1224 0
-144 149 1224 0
-163 -1225 0
-164 -1225 0
163 164 1225 0
-165 -1226 0
1218 -1226 0
165 -1218 1226 0
-162 -1227 0
-166 -1227 0
162 166 1227 0
-178 -1228 0
-179 -1228 0
178 179 1228 0
-181 -1229 0
-182 -1229 0
181 182 1229 0
-184 -1230 0
-185 -1230 0
184 185 1230 0
-187 -1231 0
-188 -1231 0
187 188 1231 0
-24 -1232 0
-190 -1232 0
24 190 1232 0
-23 -1233 0
-192 -1233 0
23 192 1233 0
-22 -1234 0
-194 -1234 0
22 194 1234 0
-21 -1235 0
-197 -1235 0
21 197 1235 0
-189 -1236 0
-195 -1236 0
189 195 1236 0
-186 -1237 0
-189 -1237 0
186 189 1237 0
-193 -1238 0
1237 -1238 0
193 -1237 1238 0
-183 -1239 0
1237 -1239 0
183 -1237 1239 0
-191 -1240 0
1239 -1240 0
191 -1239 1240 0
-199 -1241 0
-200 -1241 0
199 200 1241 0
-201 -1242 0
-202 -1242 0
201 202 1242 0
1241 -1243 0
1242 -1243 0
-1241 -1242 1243 0
-204 -1244 0
-205 -1244 0
204 205 1244 0
-206 -1245 0
1239 -1245 0
206 -1239 1245 0
-203 -1246 0
-207 -1246 0
203 207 1246 0
-203 -1247 0
208 -1247 0
203 -208 1247 0
203 -1248 0
-208 -1248 0
-203 208 1248 0
-209 -1249 0
-210 -1249 0
209 210 1249 0
-212 -1250 0
-213 -1250 0
212 213 1250 0
-215 -1251 0
-216 -1251 0
215 216 1251 0
-218 -1252 0
-219 -1252 0
218 219 1252 0
-20 -1253 0
-221 -1253 0
20 221 1253 0
-19 -1254 0
-223 -1254 0
19 223 1254 0
-18 -1255 0
-225 -1255 0
18 225 1255 0
-17 -1256 0
-227 -1256 0
17 227 1256 0
-220 -1257 0
-226 -1257 0
220 226 1257 0
-217 -1258 0
-220 -1258 0
217 220 1258 0
-224 -1259 0
1258 -1259 0
224 -1258 1259 0
-214 -1260 0
1258 -1260 0
214 -1258 1260 0
-222 -1261 0
1260 -1261 0
222 -1260 1261 0
-229 -1262 0
-230 -1262 0
229 230 1262 0
-231 -1263 0
-232 -1263 0
231 232 1263 0
1262 -1264 0
1263 -1264 0
-1262 -1263 1264 0
-234 -1265 0
-235 -1265 0
234 235 1265 0
-236 -1266 0
1260 -1266 0
236 -1260 1266 0
-233 -1267 0
-237 -1267 0
233 237 1267 0
-233 -1268 0
238 -1268 0
233 -238 1268 0
233 -1269 0
-238 -1269 0
-233 238 1269 0
-239 -1270 0
-240 -1270 0
239 240 1270 0
-242 -1271 0
-243 -1271 0
242 243 1271 0
-245 -1272 0
-246 -1272 0
245 246 1272 0
-248 -1273 0
-249 -1273 0
248 249 1273 0
-32 -1274 0
-251 -1274 0
32 251 1274 0
-31 -1275 0
-253 -1275 0
31 253 1275 0
-30 -1276 0
-255 -1276 0
30 255 1276 0
-29 -1277 0
-257 -1277 0
29 257 1277 0
-250 -1278 0
-256 -1278 0
250 256 1278 0
-247 -1279 0
-250 -1279 0
247 250 1279 0
-254 -1280 0
1279 -1280 0
254 -1279 1280 0
-244 -1281 0
1279 -1281 0
244 -1279 1281 0
-252 -1282 0
1281 -1282 0
252 -1281 1282 0
-259 -1283 0
-260 -1283 0
259 260 1283 0
-261 -1284 0
-262 -1284 0
261 262 1284 0
1283 -1285 0
1284 -1285 0
-1283 -1284 1285 0
-264 -1286 0
-265 -1286 0
264 265 1286 0
-266 -1287 0
1281 -1287 0
266 -1281 1287 0
-263 -1288 0
-267 -1288 0
263 267 1288 0
-268 -1289 0
-269 -1289 0
268 269 1289 0
179 -1290 0
-271 -1290 0
-179 271 1290 0
-208 -1291 0
-273 -1291 0
208 273 1291 0
-238 -1292 0
-275 -1292 0
238 275 1292 0
-241 -1293 0
-274 -1293 0
241 274 1293 0
-211 -1294 0
-241 -1294 0
211 241 1294 0
-272 -1295 0
1294 -1295 0
272 -1294 1295 0
-180 -1296 0
1294 -1296 0
180 -1294 1296 0
-270 -1297 0
1296 -1297 0
270 -1296 1297 0
-277 -1298 0
-278 -1298 0
277 278 1298 0
-279 -1299 0
-280 -1299 0
279 280 1299 0
1298 -1300 0
1299 -1300 0
-1298 -1299 1300 0
-263 -1301 0
268 -1301 0
263 -268 1301 0
263 -1302 0
-268 -1302 0
-263 268 1302 0
-282 -1303 0
-283 -1303 0
282 283 1303 0
-284 -1304 0
1296 -1304 0
284 -1296 1304 0
-281 -1305 0
-285 -1305 0
281 285 1305 0
167 -1306 0
-286 -1306 0
-167 286 1306 0
-167 -1307 0
286 -1307 0
167 -286 1307 0
-1306 -1308 0
-1307 -1308 0
1306 1307 1308 0
166 -1309 0
-285 -1309 0
-166 285 1309 0
-166 -1310 0
285 -1310 0
166 -285 1310 0
-1309 -1311 0
-1310 -1311 0
1309 1310 1311 0
162 -1312 0
-281 -1312 0
-162 281 1312 0
-162 -1313 0
281 -1313 0
162 -281 1313 0
-1312 -1314 0
-1313 -1314 0
1312 1313 1314 0
287 -1315 0
288 -1315 0
-287 -288 1315 0
289 -1316 0
1315 -1316 0
-289 -1315 1316 0
-11 -1317 0
-170 -1317 0
11 170 1317 0
11 -1318 0
170 -1318 0
-11 -170 1318 0
-1317 -1319 0
-1318 -1319 0
1317 1318 1319 0
-27 -1320 0
-171 -1320 0
27 171 1320 0
27 -1321 0
171 -1321 0
-27 -171 1321 0
-1320 -1322 0
-1321 -1322 0
1320 1321 1322 0
-10 -1323 0
-172 -1323 0
10 172 1323 0
10 -1324 0
172 -1324 0
-10 -172 1324 0
-1323 -1325 0
-1324 -1325 0
1323 1324 1325 0
-26 -1326 0
-173 -1326 0
26 173 1326 0
26 -1327 0
173 -1327 0
-26 -173 1327 0
-1326 -1328 0
-1327 -1328 0
1326 1327 1328 0
-9 -1329 0
-174 -1329 0
9 174 1329 0
9 -1330 0
174 -1330 0
-9 -174 1330 0
-1329 -1331 0
-1330 -1331 0
1329 1330 1331 0
-25 -1332 0
-175 -1332 0
25 175 1332 0
25 -1333 0
175 -1333 0
-25 -175 1333 0
-1332 -1334 0
-1333 -1334 0
1332 1333 1334 0
-12 -1335 0
-176 -1335 0
12 176 1335 0
12 -1336 0
176 -1336 0
-12 -176 1336 0
-1335 -1337 0
-1336 -1337 0
1335 1336 1337 0
-28 -1338 0
-177 -1338 0
28 177 1338 0
28 -1339 0
177 -1339 0
-28 -177 1339 0
-1338 -1340 0
-1339 -1340 0
1338 1339 1340 0
